instances/p2/p2_6_8-2.dzn
Alphabet = {A,C,G,T};
ns = 6;
nc = 7;
neighbours = [| I(A),I(A),I(T),I(A),I(T),I(G),I(T) | I(G),I(G),I(T),I(G),I(C),Null,Null | I(G),I(T),Null,Null,Null,Null,Null | I(G),Null,Null,Null,Null,Null,Null | I(C),I(C),Null,Null,Null,Null,Null | I(A),I(A),I(T),I(A),I(T),I(G),Null |];
