instances/p2/p2_6_8-2.txt
{
	"num_strings": 6,
	"alphabet": "ACGT",
	"strings": [
		"AATATGT",
		"GGTGC",
		"GT",
		"G",
		"CC",
		"AATATG"
	],
	"str_length":[7,5,2,1,2,6]
}